c description: There is a graph of 4 vertices with a 2-clique and a 8-coloring
c generator: CNFgen (0.9.0)
c copyright: (C) 2012-2020 Massimo Lauria <massimo.lauria@uniroma1.it>
c url: https://massimolauria.net/cnfgen
c
p cnf 46 194
-7 -8 0
-7 -9 0
-7 -10 0
-8 -9 0
-8 -10 0
-9 -10 0
7 8 9 10 0
-11 -12 0
-11 -13 0
-11 -14 0
-12 -13 0
-12 -14 0
-13 -14 0
11 12 13 14 0
-7 -11 0
-8 -12 0
-9 -13 0
-10 -14 0
1 -7 -12 0
1 -11 -8 0
2 -7 -13 0
2 -11 -9 0
3 -7 -14 0
3 -11 -10 0
4 -8 -13 0
4 -12 -9 0
5 -8 -14 0
5 -12 -10 0
6 -9 -14 0
6 -13 -10 0
-15 -16 0
-15 -17 0
-15 -18 0
-15 -19 0
-15 -20 0
-15 -21 0
-15 -22 0
-16 -17 0
-16 -18 0
-16 -19 0
-16 -20 0
-16 -21 0
-16 -22 0
-17 -18 0
-17 -19 0
-17 -20 0
-17 -21 0
-17 -22 0
-18 -19 0
-18 -20 0
-18 -21 0
-18 -22 0
-19 -20 0
-19 -21 0
-19 -22 0
-20 -21 0
-20 -22 0
-21 -22 0
15 16 17 18 19 20 21 22 0
-23 -24 0
-23 -25 0
-23 -26 0
-23 -27 0
-23 -28 0
-23 -29 0
-23 -30 0
-24 -25 0
-24 -26 0
-24 -27 0
-24 -28 0
-24 -29 0
-24 -30 0
-25 -26 0
-25 -27 0
-25 -28 0
-25 -29 0
-25 -30 0
-26 -27 0
-26 -28 0
-26 -29 0
-26 -30 0
-27 -28 0
-27 -29 0
-27 -30 0
-28 -29 0
-28 -30 0
-29 -30 0
23 24 25 26 27 28 29 30 0
-31 -32 0
-31 -33 0
-31 -34 0
-31 -35 0
-31 -36 0
-31 -37 0
-31 -38 0
-32 -33 0
-32 -34 0
-32 -35 0
-32 -36 0
-32 -37 0
-32 -38 0
-33 -34 0
-33 -35 0
-33 -36 0
-33 -37 0
-33 -38 0
-34 -35 0
-34 -36 0
-34 -37 0
-34 -38 0
-35 -36 0
-35 -37 0
-35 -38 0
-36 -37 0
-36 -38 0
-37 -38 0
31 32 33 34 35 36 37 38 0
-39 -40 0
-39 -41 0
-39 -42 0
-39 -43 0
-39 -44 0
-39 -45 0
-39 -46 0
-40 -41 0
-40 -42 0
-40 -43 0
-40 -44 0
-40 -45 0
-40 -46 0
-41 -42 0
-41 -43 0
-41 -44 0
-41 -45 0
-41 -46 0
-42 -43 0
-42 -44 0
-42 -45 0
-42 -46 0
-43 -44 0
-43 -45 0
-43 -46 0
-44 -45 0
-44 -46 0
-45 -46 0
39 40 41 42 43 44 45 46 0
-1 -15 -23 0
-1 -16 -24 0
-1 -17 -25 0
-1 -18 -26 0
-1 -19 -27 0
-1 -20 -28 0
-1 -21 -29 0
-1 -22 -30 0
-2 -15 -31 0
-2 -16 -32 0
-2 -17 -33 0
-2 -18 -34 0
-2 -19 -35 0
-2 -20 -36 0
-2 -21 -37 0
-2 -22 -38 0
-3 -15 -39 0
-3 -16 -40 0
-3 -17 -41 0
-3 -18 -42 0
-3 -19 -43 0
-3 -20 -44 0
-3 -21 -45 0
-3 -22 -46 0
-4 -23 -31 0
-4 -24 -32 0
-4 -25 -33 0
-4 -26 -34 0
-4 -27 -35 0
-4 -28 -36 0
-4 -29 -37 0
-4 -30 -38 0
-5 -23 -39 0
-5 -24 -40 0
-5 -25 -41 0
-5 -26 -42 0
-5 -27 -43 0
-5 -28 -44 0
-5 -29 -45 0
-5 -30 -46 0
-6 -31 -39 0
-6 -32 -40 0
-6 -33 -41 0
-6 -34 -42 0
-6 -35 -43 0
-6 -36 -44 0
-6 -37 -45 0
-6 -38 -46 0